1061 1148 362 242 165 965 5 189 677 780 495 579 99 873 746
953 1049 1187 971 238 330 780 404 687 773 871 765 1029 629 572
763 0 817 1033 994 757 628 885 284 366 974 678 444 736 1068
322 957 181 1180 492 84 234 585 765 204 264 732 821 434 623
1015 697 267 1068 202 609 101 0 78 238 142 963 530 790 408
866 790 700 93 450 0 1146 617 1160 1084 816 434 276 364 507
974 506 885 18 594 763 438 93 113 1146 950 525 0 1011 117
84 435 519 594 587 32 678 113 525 674 735 0 165 226 309
309 322 437 1189 816 519 122 967 872 998 0 91 717 1098 218
225 583 121 327 959 1061 0 495 181 91 417 32 672 261 846
217 864 1041 774 0 239 539 162 628 963 746 957 364 216 714
93 652 0 697 872 404 264 320 438 497 317 773 226 560 49
590 816 417 437 736 157 506 1029 222 557 320 864 954 686 1136
1187 525 1180 1164 90 222 349 700 0 438 1032 1015 609 141 28
851 409 958 871 349 1084 315 859 142 1064 85 846 234 492 773
